
Gurobi 10.0.2 (win64, Python) logging started Mon Aug  7 14:24:01 2023

Set parameter CSQueueTimeout to value 1800
Set parameter CSIdleTimeout to value 1800
Set parameter ServerTimeout to value 1800
Set parameter TokenServer to value "gurobi.licensing.its.deakin.edu.au"
Set parameter OptimalityTol to value 0.01
Set parameter LogFile to value "gurobi.log"
Set parameter Threads to value 100

Gurobi 10.0.2 (win64, Python) logging started Mon Aug  7 14:26:52 2023

Set parameter CSQueueTimeout to value 1800
Set parameter CSIdleTimeout to value 1800
Set parameter ServerTimeout to value 1800
Set parameter TokenServer to value "gurobi.licensing.its.deakin.edu.au"
Set parameter OptimalityTol to value 0.01
Set parameter LogFile to value "gurobi.log"
Set parameter Threads to value 100
Gurobi Optimizer version 10.0.2 build v10.0.2rc0 (win64)

CPU model: AMD EPYC 7742 64-Core Processor, instruction set [SSE2|AVX|AVX2]
Thread count: 128 physical cores, 256 logical processors, using up to 100 threads

Optimize a model with 168875 rows, 9441906 columns and 20843702 nonzeros
Model fingerprint: 0x50d9b8a0
Coefficient statistics:
  Matrix range     [6e-03, 4e+05]
  Objective range  [5e-09, 1e+00]
  Bounds range     [1e+00, 1e+00]
  RHS range        [1e+00, 5e+07]
Presolve removed 28686 rows and 8584927 columns (presolve time = 5s) ...
Presolve removed 28686 rows and 8584929 columns
Presolve time: 6.32s
Presolved: 140189 rows, 856977 columns, 3831342 nonzeros

Concurrent LP optimizer: primal simplex, dual simplex, and barrier
Showing barrier log only...

Ordering time: 0.06s

Barrier statistics:
 AA' NZ     : 2.162e+06
 Factor NZ  : 2.514e+06 (roughly 400 MB of memory)
 Factor Ops : 5.813e+07 (less than 1 second per iteration)
 Threads    : 98

                  Objective                Residual
Iter       Primal          Dual         Primal    Dual     Compl     Time
   0   9.90745591e+07 -2.54059639e+06  1.28e+08 8.84e-03  1.79e+04     9s
   1   3.79085427e+07 -5.97924833e+06  4.86e+07 1.11e+01  6.86e+03     9s
   2   5.93751282e+06 -7.87022214e+06  7.32e+06 5.31e+00  1.07e+03    10s
   3   1.04801471e+06 -8.12228844e+06  8.48e+05 4.30e+00  1.30e+02    11s
   4   4.81207628e+05 -7.82880806e+06  1.90e+05 9.23e-01  3.19e+01    12s
   5   1.90211074e+05 -6.08420331e+06  8.12e+04 4.87e-01  1.42e+01    12s
   6   1.64323355e+05 -5.71829836e+06  7.28e+04 4.34e-01  1.27e+01    13s
   7   2.03172060e+05 -5.34109082e+06  6.86e+04 3.54e-01  1.15e+01    13s
   8   2.45670109e+05 -4.16342364e+06  6.19e+04 2.34e-01  9.21e+00    14s
   9   1.61543977e+05 -3.12846473e+06  4.37e+04 1.40e-01  6.10e+00    15s
  10   1.02240024e+05 -2.35927981e+06  1.22e+04 9.32e-02  2.47e+00    16s
  11   7.79250060e+04 -8.59837898e+05  4.74e+03 2.07e-02  7.79e-01    17s
  12   3.25666458e+04 -3.49442821e+05  3.94e+02 6.85e-03  2.27e-01    17s
  13   1.70044765e+04 -2.01339670e+05  1.78e+02 3.31e-03  1.26e-01    18s
  14   1.15539629e+04 -1.14446450e+05  1.16e+02 1.99e-03  7.23e-02    19s
  15   9.32580185e+03 -7.38922270e+04  9.72e+01 1.06e-03  4.77e-02    19s
  16   5.86772414e+03 -6.54488671e+04  7.08e+01 1.15e-03  4.07e-02    20s
  17   3.75730949e+03 -2.89448992e+04  5.53e+01 3.56e-04  1.87e-02    20s
  18   1.98943996e+02 -6.80828394e+03  5.64e+00 5.87e-05  3.94e-03    21s
  19   1.39009964e+02 -6.15845878e+02  2.82e-03 5.93e-06  4.23e-04    22s
  20   1.00065011e+02 -4.65550382e+02  1.21e-03 4.56e-06  3.17e-04    23s
  21   8.46512397e+01 -3.36802957e+02  7.93e-04 3.30e-06  2.36e-04    23s
  22   6.11509568e+01 -3.08638559e+02  3.49e-04 3.00e-06  2.07e-04    24s
  23   5.52762156e+01 -1.99458593e+02  2.84e-04 2.42e-06  1.43e-04    25s
  24   3.97522357e+01 -1.41654255e+02  1.58e-04 1.36e-06  1.02e-04    25s
  25   3.77077961e+01 -1.19419039e+02  1.48e-04 1.04e-06  8.79e-05    26s
  26   2.43481020e+01 -9.56655335e+01  8.95e-05 1.25e-06  6.72e-05    27s
  27   2.06712539e+01 -8.41998903e+01  7.79e-05 8.64e-07  5.87e-05    28s
  28   1.91295705e+01 -7.52703550e+01  7.32e-05 4.83e-07  5.28e-05    29s
  29   1.77288625e+01 -6.60174620e+01  6.91e-05 3.47e-07  4.69e-05    30s
  30   1.26895211e+01 -5.76486348e+01  5.50e-05 2.37e-07  3.93e-05    30s
  31   1.25027365e+01 -5.51099216e+01  5.46e-05 3.54e-07  3.78e-05    31s
  32   1.14176218e+01 -4.99999608e+01  5.20e-05 1.86e-07  3.43e-05    32s
  33   8.88837224e+00 -4.65650774e+01  4.65e-05 4.31e-07  3.10e-05    33s
  34   8.16025505e+00 -4.48417406e+01  4.51e-05 3.77e-07  2.96e-05    34s
  35   5.03691121e+00 -4.23522270e+01  3.91e-05 3.60e-07  2.65e-05    35s
  36   4.88220930e-01 -3.88543904e+01  3.11e-05 3.04e-07  2.20e-05    36s
  37  -2.28990678e-01 -3.69993452e+01  2.99e-05 1.80e-07  2.06e-05    37s
  38  -9.24812281e-01 -3.54135570e+01  2.87e-05 1.42e-07  1.93e-05    37s
  39  -1.46769582e+00 -3.43039486e+01  2.79e-05 3.64e-12  1.84e-05    38s
  40  -1.67875373e+00 -3.32870588e+01  2.76e-05 3.64e-12  1.77e-05    39s
  41  -2.91426463e+00 -3.17346819e+01  2.56e-05 3.91e-08  1.61e-05    40s
  42  -3.19789682e+00 -3.13658592e+01  2.52e-05 3.64e-12  1.57e-05    41s
  43  -3.29401784e+00 -3.16195187e+01  2.51e-05 3.64e-12  1.58e-05    42s
  44  -7.29878820e+00 -3.07591444e+01  1.94e-05 3.64e-12  1.31e-05    43s
  45  -7.99680053e+00 -3.01790482e+01  1.84e-05 1.09e-07  1.24e-05    44s
  46  -1.02292959e+01 -2.95358792e+01  1.54e-05 3.64e-12  1.08e-05    45s
  47  -1.06472533e+01 -2.91809398e+01  1.49e-05 3.64e-12  1.03e-05    46s
  48  -1.08632040e+01 -2.90295514e+01  1.47e-05 3.64e-12  1.01e-05    47s
  49  -1.11278031e+01 -2.87879640e+01  1.43e-05 3.64e-12  9.85e-06    48s
  50  -1.13678168e+01 -2.85796629e+01  1.40e-05 3.64e-12  9.60e-06    49s
  51  -1.17168807e+01 -2.84016029e+01  1.36e-05 3.64e-12  9.31e-06    50s
  52  -1.19411428e+01 -2.82097905e+01  1.33e-05 3.64e-12  9.08e-06    51s
  53  -1.19812566e+01 -2.80371509e+01  1.33e-05 9.09e-13  8.96e-06    52s
  54  -1.21294025e+01 -2.79827285e+01  1.31e-05 9.09e-13  8.84e-06    53s
  55  -1.23926035e+01 -2.76877696e+01  1.28e-05 9.09e-13  8.53e-06    54s
  56  -1.29705272e+01 -2.74018796e+01  1.21e-05 9.09e-13  8.05e-06    55s
  57  -1.33201314e+01 -2.71036425e+01  1.17e-05 9.09e-13  7.69e-06    56s
  58  -1.35793818e+01 -2.67174861e+01  1.14e-05 9.09e-13  7.33e-06    57s
  59  -1.36039707e+01 -2.65648068e+01  1.14e-05 3.64e-12  7.23e-06    58s
  60  -1.48864827e+01 -2.64101022e+01  9.95e-06 9.09e-13  6.43e-06    59s
  61  -1.50609080e+01 -2.62943688e+01  9.75e-06 3.64e-12  6.27e-06    61s
  62  -1.53574804e+01 -2.62109817e+01  9.41e-06 3.64e-12  6.05e-06    62s
  63  -1.57790059e+01 -2.60784051e+01  8.95e-06 3.64e-12  5.75e-06    63s
  64  -1.59269601e+01 -2.59529821e+01  8.78e-06 9.09e-13  5.59e-06    64s
  65  -1.60396585e+01 -2.58985663e+01  8.66e-06 3.64e-12  5.50e-06    65s
  66  -1.64536702e+01 -2.58402950e+01  8.20e-06 1.82e-12  5.24e-06    66s
  67  -1.65513688e+01 -2.57953222e+01  8.09e-06 1.82e-12  5.16e-06    67s
  68  -1.66364202e+01 -2.57479890e+01  7.99e-06 1.82e-12  5.08e-06    68s
  69  -1.68102206e+01 -2.56703924e+01  7.80e-06 1.82e-12  4.94e-06    69s
  70  -1.69757275e+01 -2.56595743e+01  7.62e-06 1.82e-12  4.84e-06    70s
  71  -1.71467203e+01 -2.55535340e+01  7.43e-06 1.82e-12  4.69e-06    71s
  72  -1.73221801e+01 -2.54836004e+01  7.24e-06 1.82e-12  4.55e-06    72s
  73  -1.78145763e+01 -2.53473041e+01  6.71e-06 9.09e-13  4.20e-06    73s
  74  -1.79212289e+01 -2.53580177e+01  6.59e-06 9.09e-13  4.15e-06    74s
  75  -1.81891048e+01 -2.52668141e+01  6.29e-06 9.09e-13  3.95e-06    75s
  76  -1.84960551e+01 -2.51856186e+01  5.98e-06 9.09e-13  3.73e-06    76s
  77  -1.86251522e+01 -2.51111698e+01  5.83e-06 9.09e-13  3.62e-06    77s
  78  -1.87941608e+01 -2.50921534e+01  5.66e-06 9.09e-13  3.51e-06    78s
  79  -1.94169618e+01 -2.49901216e+01  5.00e-06 9.09e-13  3.11e-06    79s
  80  -1.95528638e+01 -2.49628873e+01  4.85e-06 9.09e-13  3.02e-06    80s
  81  -1.96515510e+01 -2.49292547e+01  4.74e-06 9.09e-13  2.94e-06    82s
  82  -1.97723126e+01 -2.48599951e+01  4.61e-06 9.09e-13  2.84e-06    83s
  83  -1.98766361e+01 -2.48150720e+01  4.49e-06 9.09e-13  2.75e-06    84s
  84  -1.99017792e+01 -2.47781663e+01  4.47e-06 9.09e-13  2.72e-06    85s
  85  -2.00442989e+01 -2.47545108e+01  4.32e-06 9.09e-13  2.63e-06    86s
  86  -2.01863716e+01 -2.47207902e+01  4.17e-06 9.09e-13  2.53e-06    87s
  87  -2.03634734e+01 -2.46833972e+01  3.99e-06 9.09e-13  2.41e-06    88s
  88  -2.07837333e+01 -2.46440800e+01  3.59e-06 9.09e-13  2.15e-06    89s
  89  -2.08630996e+01 -2.46225053e+01  3.52e-06 9.09e-13  2.10e-06    90s
  90  -2.09119108e+01 -2.45752244e+01  3.46e-06 9.09e-13  2.04e-06    92s
  91  -2.10748059e+01 -2.45511788e+01  3.28e-06 1.82e-12  1.94e-06    93s
  92  -2.13712563e+01 -2.44938369e+01  2.98e-06 1.82e-12  1.74e-06    94s
  93  -2.15464253e+01 -2.44624584e+01  2.81e-06 9.09e-13  1.63e-06    95s
  94  -2.16382223e+01 -2.44410490e+01  2.72e-06 9.09e-13  1.56e-06    97s
  95  -2.17225509e+01 -2.44283271e+01  2.63e-06 9.09e-13  1.51e-06    98s
  96  -2.19039404e+01 -2.44202075e+01  2.44e-06 3.64e-12  1.40e-06   100s
  97  -2.21601487e+01 -2.43850108e+01  2.19e-06 3.64e-12  1.24e-06   101s
  98  -2.22606144e+01 -2.43635769e+01  2.09e-06 9.09e-13  1.17e-06   102s
  99  -2.23122575e+01 -2.43433017e+01  2.05e-06 4.55e-13  1.13e-06   104s
 100  -2.24913789e+01 -2.43264333e+01  1.86e-06 9.09e-13  1.02e-06   105s
 101  -2.25606456e+01 -2.43236482e+01  1.78e-06 3.64e-12  9.83e-07   106s
 102  -2.26488869e+01 -2.43142629e+01  1.69e-06 9.09e-13  9.29e-07   107s
 103  -2.28174375e+01 -2.42991697e+01  1.52e-06 3.64e-12  8.27e-07   108s
 104  -2.28943358e+01 -2.42773944e+01  1.44e-06 9.09e-13  7.71e-07   110s
 105  -2.29319656e+01 -2.42636723e+01  1.40e-06 3.64e-12  7.43e-07   111s
 106  -2.31063252e+01 -2.42559350e+01  1.21e-06 3.64e-12  6.41e-07   112s
 107  -2.31716911e+01 -2.42457443e+01  1.14e-06 3.64e-12  5.99e-07   113s
 108  -2.32595832e+01 -2.42334867e+01  1.04e-06 3.64e-12  5.43e-07   114s
 109  -2.33011140e+01 -2.42260511e+01  9.91e-07 3.64e-12  5.16e-07   115s
 110  -2.34520853e+01 -2.42154470e+01  8.28e-07 1.40e-13  4.26e-07   116s
 111  -2.35272222e+01 -2.42040826e+01  7.43e-07 9.09e-13  3.78e-07   118s
 112  -2.35665422e+01 -2.41960602e+01  6.96e-07 4.55e-13  3.51e-07   119s
 113  -2.35865022e+01 -2.41868084e+01  6.73e-07 4.55e-13  3.35e-07   120s
 114  -2.36236814e+01 -2.41840050e+01  6.28e-07 3.35e-13  3.13e-07   121s
 115  -2.36655692e+01 -2.41785342e+01  5.79e-07 3.11e-13  2.86e-07   122s
 116  -2.36835738e+01 -2.41726538e+01  5.60e-07 4.55e-13  2.73e-07   124s
 117  -2.37654709e+01 -2.41678764e+01  4.67e-07 4.55e-13  2.24e-07   125s
 118  -2.37908092e+01 -2.41644662e+01  4.40e-07 4.55e-13  2.08e-07   126s
 119  -2.38015669e+01 -2.41623006e+01  4.27e-07 2.27e-13  2.01e-07   127s
 120  -2.38562360e+01 -2.41611556e+01  3.68e-07 4.55e-13  1.70e-07   129s
 121  -2.38755196e+01 -2.41595393e+01  3.42e-07 2.27e-13  1.58e-07   130s
 122  -2.38932942e+01 -2.41591406e+01  3.21e-07 3.64e-12  1.48e-07   131s
 123  -2.39083358e+01 -2.41584294e+01  3.04e-07 3.64e-12  1.40e-07   133s
 124  -2.39289614e+01 -2.41576600e+01  2.82e-07 3.64e-12  1.28e-07   134s
 125  -2.39519419e+01 -2.41568892e+01  2.54e-07 3.27e-13  1.14e-07   135s
 126  -2.39662272e+01 -2.41565504e+01  2.37e-07 3.07e-13  1.06e-07   136s
 127  -2.39753597e+01 -2.41554194e+01  2.27e-07 3.18e-13  1.00e-07   137s
 128  -2.39911949e+01 -2.41544952e+01  2.07e-07 3.38e-13  9.11e-08   138s
 129  -2.40007266e+01 -2.41540006e+01  1.96e-07 4.18e-13  8.55e-08   139s
 130  -2.40139244e+01 -2.41538635e+01  1.80e-07 5.34e-13  7.81e-08   141s
 131  -2.40392688e+01 -2.41532518e+01  1.52e-07 4.55e-13  6.36e-08   142s
 132  -2.40457131e+01 -2.41528914e+01  1.43e-07 4.55e-13  5.98e-08   143s
 133  -2.40537659e+01 -2.41526746e+01  1.34e-07 4.55e-13  5.52e-08   144s
 134  -2.40621057e+01 -2.41526428e+01  1.22e-07 2.59e-13  5.05e-08   145s
 135  -2.40655939e+01 -2.41526156e+01  1.18e-07 3.05e-13  4.85e-08   147s
 136  -2.40694865e+01 -2.41525486e+01  1.13e-07 3.64e-12  4.63e-08   148s
 137  -2.40761599e+01 -2.41524642e+01  1.04e-07 3.64e-12  4.26e-08   149s
 138  -2.40814917e+01 -2.41523889e+01  9.79e-08 3.64e-12  3.95e-08   151s
 139  -2.40858748e+01 -2.41523578e+01  9.31e-08 4.83e-13  3.71e-08   152s
 140  -2.40871179e+01 -2.41523350e+01  9.15e-08 4.55e-13  3.64e-08   153s
 141  -2.40898692e+01 -2.41522825e+01  8.73e-08 4.55e-13  3.48e-08   155s
 142  -2.40924645e+01 -2.41522422e+01  8.31e-08 2.94e-13  3.33e-08   156s
 143  -2.40961624e+01 -2.41522105e+01  7.74e-08 3.66e-13  3.13e-08   157s
 144  -2.40997568e+01 -2.41521986e+01  7.47e-08 8.48e-13  2.93e-08   159s
 145  -2.41018043e+01 -2.41521789e+01  7.06e-08 9.11e-13  2.81e-08   160s
 146  -2.41037234e+01 -2.41521762e+01  6.85e-08 8.96e-13  2.70e-08   161s
 147  -2.41073080e+01 -2.41521651e+01  6.29e-08 1.10e-12  2.50e-08   163s
 148  -2.41136314e+01 -2.41522495e+01  5.59e-08 3.64e-12  2.15e-08   164s
 149  -2.41161303e+01 -2.41521608e+01  5.27e-08 1.31e-12  2.01e-08   165s
 150  -2.41222878e+01 -2.41521398e+01  4.35e-08 1.57e-12  1.67e-08   167s
 151  -2.41245214e+01 -2.41520849e+01  4.30e-08 1.93e-12  1.54e-08   168s
 152  -2.41328414e+01 -2.41520446e+01  2.86e-08 2.87e-12  1.07e-08   170s
 153  -2.41354037e+01 -2.41521620e+01  2.45e-08 3.64e-12  9.35e-09   171s
 154  -2.41400198e+01 -2.41521046e+01  1.61e-08 3.64e-12  6.74e-09   172s
 155  -2.41407755e+01 -2.41520489e+01  1.45e-08 1.41e-12  6.29e-09   173s
 156  -2.41429212e+01 -2.41520177e+01  1.37e-08 3.92e-12  5.07e-09   174s
 157  -2.41464211e+01 -2.41520509e+01  6.00e-09 7.28e-12  3.14e-09   175s
 158  -2.41486449e+01 -2.41520129e+01  7.83e-09 5.41e-12  1.88e-09   176s
 159  -2.41501547e+01 -2.41520057e+01  2.17e-09 5.24e-12  1.03e-09   177s
 160  -2.41513076e+01 -2.41519874e+01  3.66e-09 6.38e-12  3.79e-10   178s
 161  -2.41513788e+01 -2.41519856e+01  2.98e-09 4.85e-12  3.38e-10   179s
 162  -2.41517746e+01 -2.41519829e+01  3.30e-09 3.28e-12  1.16e-10   181s
 163  -2.41518365e+01 -2.41519826e+01  1.36e-09 3.06e-12  8.15e-11   182s
 164  -2.41519301e+01 -2.41519820e+01  5.22e-09 2.97e-12  2.90e-11   183s
 165  -2.41519623e+01 -2.41519817e+01  5.02e-06 3.02e-12  1.08e-11   184s
 166  -2.41519725e+01 -2.41519817e+01  2.29e-06 2.87e-12  5.11e-12   185s
 167  -2.41519773e+01 -2.41519817e+01  1.24e-06 2.79e-12  2.42e-12   186s
 168  -2.41519784e+01 -2.41519816e+01  9.18e-07 2.76e-12  1.84e-12   188s
 169  -2.41519803e+01 -2.41519816e+01  3.78e-07 2.72e-12  7.42e-13   189s
 170  -2.41519806e+01 -2.41519816e+01  3.00e-07 2.70e-12  5.96e-13   190s
 171  -2.41519807e+01 -2.41519816e+01  3.24e-07 2.70e-12  4.97e-13   190s
 172  -2.41519814e+01 -2.41519816e+01  6.04e-07 2.72e-12  1.49e-13   191s

Barrier solved model in 172 iterations and 191.32 seconds (77.51 work units)
Optimal objective -2.41519814e+01

Crossover log...

   62855 DPushes remaining with DInf 0.0000000e+00               192s
       0 DPushes remaining with DInf 0.0000000e+00               192s

     426 PPushes remaining with PInf 3.6429045e-04               192s
       0 PPushes remaining with PInf 1.3113022e-06               192s

  Push phase complete: Pinf 1.3113022e-06, Dinf 5.2001726e+00    192s

Iteration    Objective       Primal Inf.    Dual Inf.      Time
   61246   -2.4151982e+01   1.311302e-06   0.000000e+00    192s

Solved with barrier
   61247   -2.4151982e+01   2.052784e-04   0.000000e+00    195s
Extra simplex iterations after uncrush: 13
   61260   -2.4151982e+01   0.000000e+00   0.000000e+00    196s

Solved in 61260 iterations and 195.59 seconds (79.05 work units)
Optimal objective -2.415198161e+01
